c WARNING: for repeatability, setting FPU to use double precision
d VARIABLES            73340        
d CONSTRAINTS          260348       
c ============================[ Problem Statistics ]=============================
c |                                                                             |
c |  Number of variables:         73340                                         |
c |  Number of clauses:          260348                                         |
c |  Parse time:                   0.05 s                                       |
c |                                                                             |
c ============================[ Search Statistics ]==============================
c | Conflicts |          ORIGINAL         |          LEARNT          | Progress |
c |           |    Vars  Clauses Literals |    Limit  Clauses Lit/Cl |          |
c ===============================================================================
c |       100 |   54070   210718   529511 |    77263      100     66 | 26.275 % |
c |       250 |   54070   210718   529511 |    84989      250     51 | 26.275 % |
c |       475 |   54070   210718   529511 |    93488      475     33 | 26.275 % |
c |       812 |   54070   210718   529511 |   102837      812     25 | 26.275 % |
c |      1318 |   54070   210718   529511 |   113121     1318     26 | 26.275 % |
c |      2077 |   54070   210718   529511 |   124433     2077     27 | 26.275 % |
c |      3216 |   54070   210718   529511 |   136876     3216     34 | 26.275 % |
c |      4924 |   54070   210718   529511 |   150564     4924     35 | 26.275 % |
c |      7486 |   54070   210718   529511 |   165620     7486     37 | 26.275 % |
c |     11330 |   54069   210714   529501 |   182182    11329     37 | 26.276 % |
c |     17096 |   54069   210714   529501 |   200401    17095     51 | 26.276 % |
c |     25745 |   54069   210714   529501 |   220441    25744     66 | 26.276 % |
c |     38719 |   54068   210710   529491 |   242485    38717     78 | 26.278 % |
c |     58180 |   54068   210710   529491 |   266733    58178     85 | 26.278 % |
c |     87372 |   54068   210710   529491 |   293407    87370     97 | 26.278 % |
c |    131161 |   54068   210710   529491 |   322747   131159    140 | 26.278 % |
c |    196845 |   54068   210710   529491 |   355022   196843    135 | 26.278 % |
c |    295371 |   54068   210710   529491 |   390524   295369    124 | 26.278 % |
c |    443160 |   54068   210710   529491 |   429577    69583     87 | 26.278 % |
c |    664843 |   54068   210710   529491 |   472535   291266    120 | 26.278 % |
c |    997368 |   54068   210710   529491 |   519788   171350     74 | 26.278 % |
c |   1496156 |   54068   210710   529491 |   571767   170803     60 | 26.278 % |
c |   2244338 |   54068   210710   529491 |   628944   365622     71 | 26.278 % |
c |   3366612 |   54068   210710   529491 |   691838   273521     69 | 26.278 % |
c |   5050023 |   54068   210710   529491 |   761022   590271    125 | 26.278 % |
c ===============================================================================
c restarts              : 9129
c conflicts             : 5724451        (3198 /sec)
c decisions             : 11535846       (0.00 % random) (6444 /sec)
c propagations          : 4110802224     (2296261 /sec)
c conflict literals     : 566128535      (30.36 % deleted)
d RESTARTS             9129
d FAILURES             5724451      
d NODES                11535846     
d BACKTRACKS           11535846     
d PROPAGATIONS         4110802224   
d NOGOODSIZE           98.90 
d MEMORY               725.00 
d TIME                 1790.22 

s UNKNOWN
